46
1 0 2
2 0 3
2 1 60
3 0 62
3 1 22
3 2 2
4 0 14
4 1 33
4 2 51
4 3 9
5 0 30
5 1 46
5 2 24
5 3 60
5 4 27
6 0 52
6 1 23
6 2 54
6 3 51
6 4 58
6 5 26
7 0 52
7 1 34
7 2 15
7 3 20
7 4 49
7 5 25
7 6 62
8 0 17
8 1 12
8 2 54
8 3 54
8 4 26
8 5 17
8 6 15
8 7 16
9 0 46
9 1 45
9 2 28
9 3 5
9 4 32
9 5 3
9 6 69
9 7 56
9 8 14
10 0 66
10 1 17
10 2 63
10 3 49
10 4 39
10 5 56
10 6 39
10 7 33
10 8 44
10 9 9
11 0 3
11 1 69
11 2 7
11 3 50
11 4 44
11 5 30
11 6 7
11 7 69
11 8 45
11 9 60
11 10 44
12 0 19
12 1 21
12 2 35
12 3 61
12 4 40
12 5 16
12 6 40
12 7 5
12 8 59
12 9 57
12 10 11
12 11 29
13 0 3
13 1 70
13 2 48
13 3 26
13 4 11
13 5 55
13 6 18
13 7 17
13 8 1
13 9 67
13 10 56
13 11 10
13 12 37
14 0 40
14 1 50
14 2 38
14 3 45
14 4 15
14 5 53
14 6 2
14 7 21
14 8 15
14 9 68
14 10 2
14 11 3
14 12 11
14 13 7
15 0 40
15 1 1
15 2 30
15 3 63
15 4 27
15 5 53
15 6 56
15 7 70
15 8 63
15 9 52
15 10 70
15 11 32
15 12 63
15 13 48
15 14 68
16 0 14
16 1 64
16 2 11
16 3 21
16 4 47
16 5 49
16 6 61
16 7 53
16 8 52
16 9 16
16 10 56
16 11 21
16 12 36
16 13 10
16 14 61
16 15 46
17 0 40
17 1 42
17 2 5
17 3 39
17 4 70
17 5 63
17 6 1
17 7 7
17 8 61
17 9 21
17 10 29
17 11 58
17 12 22
17 13 7
17 14 6
17 15 47
17 16 26
18 0 49
18 1 14
18 2 39
18 3 1
18 4 14
18 5 6
18 6 41
18 7 20
18 8 66
18 9 58
18 10 68
18 11 19
18 12 64
18 13 20
18 14 3
18 15 28
18 16 63
18 17 35
19 0 16
19 1 26
19 2 62
19 3 28
19 4 49
19 5 41
19 6 5
19 7 23
19 8 70
19 9 70
19 10 31
19 11 5
19 12 2
19 13 39
19 14 60
19 15 66
19 16 7
19 17 65
19 18 69
20 0 30
20 1 64
20 2 4
20 3 49
20 4 33
20 5 49
20 6 38
20 7 40
20 8 5
20 9 68
20 10 21
20 11 48
20 12 14
20 13 31
20 14 44
20 15 4
20 16 65
20 17 15
20 18 57
20 19 70
21 0 24
21 1 13
21 2 70
21 3 38
21 4 48
21 5 28
21 6 37
21 7 53
21 8 48
21 9 49
21 10 40
21 11 19
21 12 10
21 13 55
21 14 23
21 15 53
21 16 17
21 17 63
21 18 10
21 19 57
21 20 67
22 0 31
22 1 48
22 2 47
22 3 54
22 4 11
22 5 36
22 6 56
22 7 30
22 8 4
22 9 2
22 10 1
22 11 32
22 12 69
22 13 38
22 14 64
22 15 50
22 16 27
22 17 69
22 18 45
22 19 16
22 20 65
22 21 29
23 0 26
23 1 69
23 2 67
23 3 25
23 4 69
23 5 30
23 6 57
23 7 56
23 8 50
23 9 4
23 10 43
23 11 7
23 12 63
23 13 2
23 14 7
23 15 25
23 16 8
23 17 67
23 18 24
23 19 64
23 20 12
23 21 10
23 22 54
24 0 2
24 1 62
24 2 68
24 3 50
24 4 64
24 5 40
24 6 17
24 7 12
24 8 48
24 9 45
24 10 45
24 11 57
24 12 62
24 13 55
24 14 42
24 15 28
24 16 44
24 17 42
24 18 18
24 19 56
24 20 43
24 21 47
24 22 25
24 23 52
25 0 27
25 1 31
25 2 12
25 3 50
25 4 55
25 5 31
25 6 59
25 7 42
25 8 24
25 9 36
25 10 52
25 11 14
25 12 2
25 13 24
25 14 47
25 15 32
25 16 52
25 17 29
25 18 10
25 19 22
25 20 29
25 21 1
25 22 64
25 23 21
25 24 33
26 0 68
26 1 44
26 2 20
26 3 13
26 4 32
26 5 7
26 6 12
26 7 14
26 8 50
26 9 55
26 10 26
26 11 70
26 12 54
26 13 23
26 14 12
26 15 27
26 16 35
26 17 15
26 18 43
26 19 12
26 20 23
26 21 9
26 22 29
26 23 37
26 24 60
26 25 15
27 0 58
27 1 49
27 2 59
27 3 41
27 4 50
27 5 22
27 6 31
27 7 57
27 8 21
27 9 11
27 10 56
27 11 2
27 12 3
27 13 11
27 14 6
27 15 66
27 16 60
27 17 21
27 18 58
27 19 7
27 20 45
27 21 26
27 22 4
27 23 62
27 24 43
27 25 52
27 26 32
28 0 25
28 1 12
28 2 63
28 3 64
28 4 53
28 5 5
28 6 10
28 7 51
28 8 18
28 9 22
28 10 52
28 11 42
28 12 34
28 13 63
28 14 40
28 15 16
28 16 48
28 17 28
28 18 54
28 19 70
28 20 46
28 21 4
28 22 23
28 23 4
28 24 56
28 25 44
28 26 21
28 27 60
29 0 64
29 1 45
29 2 5
29 3 6
29 4 40
29 5 15
29 6 10
29 7 14
29 8 16
29 9 3
29 10 13
29 11 19
29 12 30
29 13 7
29 14 20
29 15 62
29 16 47
29 17 61
29 18 43
29 19 10
29 20 56
29 21 48
29 22 9
29 23 67
29 24 11
29 25 2
29 26 66
29 27 31
29 28 45
30 0 5
30 1 25
30 2 65
30 3 41
30 4 55
30 5 56
30 6 63
30 7 62
30 8 26
30 9 18
30 10 61
30 11 1
30 12 63
30 13 50
30 14 8
30 15 61
30 16 27
30 17 59
30 18 44
30 19 17
30 20 44
30 21 3
30 22 52
30 23 52
30 24 38
30 25 21
30 26 38
30 27 24
30 28 70
30 29 45
31 0 37
31 1 56
31 2 8
31 3 19
31 4 37
31 5 47
31 6 55
31 7 27
31 8 57
31 9 52
31 10 44
31 11 32
31 12 44
31 13 62
31 14 59
31 15 32
31 16 64
31 17 70
31 18 47
31 19 8
31 20 55
31 21 19
31 22 11
31 23 41
31 24 64
31 25 61
31 26 58
31 27 52
31 28 17
31 29 13
31 30 11
32 0 1
32 1 19
32 2 55
32 3 4
32 4 55
32 5 7
32 6 64
32 7 58
32 8 29
32 9 64
32 10 20
32 11 9
32 12 39
32 13 35
32 14 26
32 15 6
32 16 29
32 17 12
32 18 21
32 19 36
32 20 68
32 21 68
32 22 31
32 23 62
32 24 20
32 25 11
32 26 69
32 27 30
32 28 47
32 29 27
32 30 10
32 31 47
33 0 7
33 1 68
33 2 63
33 3 17
33 4 2
33 5 10
33 6 21
33 7 38
33 8 2
33 9 24
33 10 57
33 11 1
33 12 22
33 13 59
33 14 11
33 15 48
33 16 20
33 17 12
33 18 52
33 19 35
33 20 62
33 21 22
33 22 33
33 23 40
33 24 70
33 25 33
33 26 49
33 27 15
33 28 39
33 29 5
33 30 36
33 31 37
33 32 55
34 0 10
34 1 45
34 2 65
34 3 64
34 4 9
34 5 43
34 6 60
34 7 26
34 8 14
34 9 8
34 10 24
34 11 65
34 12 14
34 13 39
34 14 37
34 15 57
34 16 64
34 17 12
34 18 7
34 19 23
34 20 25
34 21 36
34 22 21
34 23 52
34 24 20
34 25 60
34 26 65
34 27 28
34 28 3
34 29 64
34 30 30
34 31 19
34 32 31
34 33 3
35 0 20
35 1 41
35 2 29
35 3 51
35 4 65
35 5 65
35 6 31
35 7 66
35 8 3
35 9 28
35 10 16
35 11 57
35 12 11
35 13 14
35 14 66
35 15 50
35 16 41
35 17 13
35 18 70
35 19 38
35 20 19
35 21 7
35 22 23
35 23 66
35 24 7
35 25 18
35 26 40
35 27 43
35 28 54
35 29 30
35 30 42
35 31 14
35 32 14
35 33 52
35 34 9
36 0 7
36 1 70
36 2 1
36 3 57
36 4 26
36 5 51
36 6 63
36 7 42
36 8 42
36 9 52
36 10 41
36 11 26
36 12 14
36 13 68
36 14 11
36 15 25
36 16 57
36 17 54
36 18 48
36 19 40
36 20 34
36 21 67
36 22 42
36 23 31
36 24 1
36 25 33
36 26 16
36 27 18
36 28 36
36 29 16
36 30 12
36 31 10
36 32 6
36 33 27
36 34 8
36 35 53
37 0 16
37 1 48
37 2 18
37 3 63
37 4 27
37 5 68
37 6 26
37 7 46
37 8 40
37 9 60
37 10 10
37 11 49
37 12 13
37 13 7
37 14 32
37 15 8
37 16 34
37 17 22
37 18 49
37 19 56
37 20 1
37 21 64
37 22 8
37 23 68
37 24 20
37 25 37
37 26 2
37 27 60
37 28 30
37 29 23
37 30 20
37 31 18
37 32 36
37 33 52
37 34 23
37 35 38
37 36 57
38 0 62
38 1 46
38 2 42
38 3 16
38 4 27
38 5 47
38 6 24
38 7 42
38 8 30
38 9 14
38 10 8
38 11 54
38 12 35
38 13 4
38 14 2
38 15 27
38 16 60
38 17 31
38 18 2
38 19 66
38 20 51
38 21 22
38 22 16
38 23 44
38 24 63
38 25 45
38 26 57
38 27 54
38 28 15
38 29 26
38 30 47
38 31 14
38 32 65
38 33 46
38 34 16
38 35 38
38 36 10
38 37 23
39 0 42
39 1 33
39 2 49
39 3 65
39 4 46
39 5 31
39 6 17
39 7 57
39 8 53
39 9 18
39 10 23
39 11 63
39 12 27
39 13 41
39 14 57
39 15 19
39 16 42
39 17 23
39 18 65
39 19 46
39 20 25
39 21 36
39 22 50
39 23 35
39 24 4
39 25 57
39 26 49
39 27 8
39 28 48
39 29 12
39 30 3
39 31 8
39 32 41
39 33 4
39 34 43
39 35 16
39 36 47
39 37 21
39 38 42
40 0 10
40 1 46
40 2 32
40 3 37
40 4 60
40 5 42
40 6 21
40 7 6
40 8 54
40 9 44
40 10 55
40 11 64
40 12 47
40 13 5
40 14 45
40 15 13
40 16 5
40 17 3
40 18 27
40 19 67
40 20 46
40 21 11
40 22 35
40 23 16
40 24 60
40 25 15
40 26 64
40 27 30
40 28 51
40 29 61
40 30 12
40 31 57
40 32 48
40 33 30
40 34 67
40 35 52
40 36 57
40 37 49
40 38 44
40 39 4
41 0 51
41 1 16
41 2 14
41 3 62
41 4 14
41 5 28
41 6 55
41 7 51
41 8 5
41 9 28
41 10 33
41 11 37
41 12 19
41 13 51
41 14 3
41 15 2
41 16 49
41 17 8
41 18 18
41 19 67
41 20 33
41 21 43
41 22 28
41 23 22
41 24 63
41 25 47
41 26 17
41 27 19
41 28 58
41 29 8
41 30 64
41 31 22
41 32 38
41 33 28
41 34 12
41 35 26
41 36 29
41 37 60
41 38 59
41 39 36
41 40 39
42 0 18
42 1 59
42 2 9
42 3 44
42 4 28
42 5 61
42 6 57
42 7 25
42 8 30
42 9 30
42 10 27
42 11 25
42 12 60
42 13 14
42 14 36
42 15 38
42 16 53
42 17 52
42 18 20
42 19 59
42 20 39
42 21 55
42 22 35
42 23 31
42 24 16
42 25 6
42 26 19
42 27 36
42 28 2
42 29 16
42 30 48
42 31 4
42 32 1
42 33 67
42 34 25
42 35 41
42 36 60
42 37 68
42 38 64
42 39 47
42 40 58
42 41 15
43 0 19
43 1 35
43 2 70
43 3 8
43 4 55
43 5 69
43 6 59
43 7 16
43 8 54
43 9 12
43 10 68
43 11 34
43 12 7
43 13 65
43 14 48
43 15 37
43 16 51
43 17 11
43 18 27
43 19 29
43 20 24
43 21 66
43 22 16
43 23 19
43 24 40
43 25 36
43 26 33
43 27 50
43 28 38
43 29 65
43 30 27
43 31 24
43 32 27
43 33 46
43 34 59
43 35 24
43 36 25
43 37 50
43 38 44
43 39 19
43 40 28
43 41 61
43 42 27
44 0 21
44 1 36
44 2 13
44 3 45
44 4 48
44 5 8
44 6 57
44 7 20
44 8 15
44 9 21
44 10 61
44 11 39
44 12 51
44 13 54
44 14 52
44 15 12
44 16 13
44 17 46
44 18 20
44 19 33
44 20 57
44 21 46
44 22 46
44 23 34
44 24 15
44 25 14
44 26 46
44 27 30
44 28 36
44 29 36
44 30 10
44 31 60
44 32 70
44 33 56
44 34 31
44 35 49
44 36 54
44 37 61
44 38 17
44 39 56
44 40 22
44 41 11
44 42 12
44 43 44
45 0 9
45 1 40
45 2 68
45 3 27
45 4 46
45 5 66
45 6 14
45 7 45
45 8 27
45 9 3
45 10 54
45 11 15
45 12 41
45 13 66
45 14 47
45 15 63
45 16 17
45 17 66
45 18 53
45 19 25
45 20 16
45 21 47
45 22 32
45 23 8
45 24 27
45 25 33
45 26 60
45 27 45
45 28 41
45 29 4
45 30 20
45 31 65
45 32 37
45 33 70
45 34 43
45 35 61
45 36 69
45 37 45
45 38 55
45 39 41
45 40 62
45 41 30
45 42 9
45 43 29
45 44 14
